(declare-fun _for_it_23 () Int)
(declare-fun _if_cond_62_val () (Array Int Int))
(declare-fun _if_cond_63_val () (Array Int Int))
(declare-fun jn_val () (Array Int Int))

(assert (forall ((_for_it_55 Int) (kfdia Int) (kidia Int) (klev Int) (klon Int) (ncldtop Int))
  (=>
    (and
      (<= 0 _for_it_55)
      (<= (+ _for_it_55 1) 4)
      (<= kidia (+ kfdia (- 1)))
      (<= ncldtop (+ klev (- 1)))
      (not (or (exists ((_for_it_56_0 Int)(_for_it_56_1 Int)) (and (= (- (+ (* (- (+ _for_it_23 1) ncldtop) (- (* kfdia 4) (* kidia 4))) _for_it_56_0 (* _for_it_55 (- kfdia kidia)) 1) kidia) (- (+ (* (- (+ _for_it_23 1) ncldtop) (- (* kfdia 4) (* kidia 4))) _for_it_56_1 (* (+ _for_it_55 1) (- kfdia kidia)) 1) kidia)) (= (select _if_cond_62_val (- (+ (* 4 _for_it_23) _for_it_55 5) (* ncldtop 4))) 1) (= (select _if_cond_62_val (- (+ (* 4 _for_it_23) _for_it_55 4) (* ncldtop 4))) 1) (<= _for_it_56_1 (+ kfdia (- 1))) (<= (+ kidia (- 1)) _for_it_56_1) (<= _for_it_56_0 (+ kfdia (- 1))) (<= (+ kidia (- 1)) _for_it_56_0))) (exists ((_for_it_56_0 Int)(_for_it_56_1 Int)) (and (= (select _if_cond_62_val (- (+ (* 4 _for_it_23) _for_it_55 5) (* ncldtop 4))) 1) (= (select _if_cond_62_val (- (+ (* 4 _for_it_23) _for_it_55 4) (* ncldtop 4))) 1) (<= _for_it_56_1 (+ kfdia (- 1))) (<= (+ kidia (- 1)) _for_it_56_1) (= (select _if_cond_63_val (- (+ (* (- (+ _for_it_23 1) ncldtop) (- (* kfdia 4) (* kidia 4))) _for_it_56_1 (* (+ _for_it_55 1) (- kfdia kidia)) 1) kidia)) 1) (<= _for_it_56_0 (+ kfdia (- 1))) (<= (+ kidia (- 1)) _for_it_56_0) (= (select _if_cond_63_val (- (+ (* (- (+ _for_it_23 1) ncldtop) (- (* kfdia 4) (* kidia 4))) _for_it_56_0 (* _for_it_55 (- kfdia kidia)) 1) kidia)) 1) (= _for_it_56_0 _for_it_56_1) (= _for_it_55 (+ _for_it_55 1)))) (exists ((_for_it_56_0 Int)(_for_it_56_1 Int)) (and (= (select _if_cond_62_val (- (+ (* 4 _for_it_23) _for_it_55 5) (* ncldtop 4))) 1) (= _for_it_55 (+ (select jn_val (- (+ (* 4 _for_it_23) _for_it_55 5) (* ncldtop 4))) (- 1))) (= (select _if_cond_62_val (- (+ (* 4 _for_it_23) _for_it_55 4) (* ncldtop 4))) 1) (<= _for_it_56_1 (+ kfdia (- 1))) (<= (+ kidia (- 1)) _for_it_56_1) (= (select _if_cond_63_val (- (+ (* (- (+ _for_it_23 1) ncldtop) (- (* kfdia 4) (* kidia 4))) _for_it_56_1 (* (+ _for_it_55 1) (- kfdia kidia)) 1) kidia)) 1) (<= _for_it_56_0 (+ kfdia (- 1))) (<= (+ kidia (- 1)) _for_it_56_0) (= (select _if_cond_63_val (- (+ (* (- (+ _for_it_23 1) ncldtop) (- (* kfdia 4) (* kidia 4))) _for_it_56_0 (* _for_it_55 (- kfdia kidia)) 1) kidia)) 1) (= _for_it_56_0 _for_it_56_1))) (exists ((_for_it_56_0 Int)(_for_it_56_1 Int)) (and (= (select _if_cond_62_val (- (+ (* 4 _for_it_23) _for_it_55 5) (* ncldtop 4))) 1) (= (select _if_cond_62_val (- (+ (* 4 _for_it_23) _for_it_55 4) (* ncldtop 4))) 1) (<= _for_it_56_1 (+ kfdia (- 1))) (= (+ (select jn_val (- (+ (* 4 _for_it_23) _for_it_55 4) (* ncldtop 4))) (- 1)) (+ _for_it_55 1)) (<= (+ kidia (- 1)) _for_it_56_1) (= (select _if_cond_63_val (- (+ (* (- (+ _for_it_23 1) ncldtop) (- (* kfdia 4) (* kidia 4))) _for_it_56_1 (* (+ _for_it_55 1) (- kfdia kidia)) 1) kidia)) 1) (<= _for_it_56_0 (+ kfdia (- 1))) (<= (+ kidia (- 1)) _for_it_56_0) (= (select _if_cond_63_val (- (+ (* (- (+ _for_it_23 1) ncldtop) (- (* kfdia 4) (* kidia 4))) _for_it_56_0 (* _for_it_55 (- kfdia kidia)) 1) kidia)) 1) (= _for_it_56_0 _for_it_56_1))) (exists ((_for_it_56_0 Int)(_for_it_56_1 Int)) (and (= (select _if_cond_62_val (- (+ (* 4 _for_it_23) _for_it_55 5) (* ncldtop 4))) 1) (= (select _if_cond_62_val (- (+ (* 4 _for_it_23) _for_it_55 4) (* ncldtop 4))) 1) (<= _for_it_56_1 (+ kfdia (- 1))) (<= (+ kidia (- 1)) _for_it_56_1) (= (select _if_cond_63_val (- (+ (* (- (+ _for_it_23 1) ncldtop) (- (* kfdia 4) (* kidia 4))) _for_it_56_1 (* (+ _for_it_55 1) (- kfdia kidia)) 1) kidia)) 1) (<= _for_it_56_0 (+ kfdia (- 1))) (<= (+ kidia (- 1)) _for_it_56_0) (= (+ (select jn_val (- (+ (* 4 _for_it_23) _for_it_55 4) (* ncldtop 4))) (- 1)) (+ (select jn_val (- (+ (* 4 _for_it_23) _for_it_55 5) (* ncldtop 4))) (- 1))) (= (select _if_cond_63_val (- (+ (* (- (+ _for_it_23 1) ncldtop) (- (* kfdia 4) (* kidia 4))) _for_it_56_0 (* _for_it_55 (- kfdia kidia)) 1) kidia)) 1) (= _for_it_56_0 _for_it_56_1))) (exists ((_for_it_56_0 Int)(_for_it_56_1 Int)) (and (= (select _if_cond_62_val (- (+ (* 4 _for_it_23) _for_it_55 5) (* ncldtop 4))) 1) (= (select _if_cond_62_val (- (+ (* 4 _for_it_23) _for_it_55 4) (* ncldtop 4))) 1) (<= _for_it_56_1 (+ kfdia (- 1))) (<= (+ kidia (- 1)) _for_it_56_1) (= (select _if_cond_63_val (- (+ (* (- (+ _for_it_23 1) ncldtop) (- (* kfdia 4) (* kidia 4))) _for_it_56_1 (* (+ _for_it_55 1) (- kfdia kidia)) 1) kidia)) 1) (<= _for_it_56_0 (+ kfdia (- 1))) (<= (+ kidia (- 1)) _for_it_56_0) (= (select _if_cond_63_val (- (+ (* (- (+ _for_it_23 1) ncldtop) (- (* kfdia 4) (* kidia 4))) _for_it_56_0 (* _for_it_55 (- kfdia kidia)) 1) kidia)) 1))) (exists ((_for_it_56_0 Int)(_for_it_56_1 Int)) (and (= (select _if_cond_62_val (- (+ (* 4 _for_it_23) _for_it_55 5) (* ncldtop 4))) 1) (= _for_it_55 (+ (select jn_val (- (+ (* 4 _for_it_23) _for_it_55 5) (* ncldtop 4))) (- 1))) (= (select _if_cond_62_val (- (+ (* 4 _for_it_23) _for_it_55 4) (* ncldtop 4))) 1) (<= _for_it_56_1 (+ kfdia (- 1))) (= (+ (select jn_val (- (+ (* 4 _for_it_23) _for_it_55 4) (* ncldtop 4))) (- 1)) (+ _for_it_55 1)) (<= (+ kidia (- 1)) _for_it_56_1) (= (select _if_cond_63_val (- (+ (* (- (+ _for_it_23 1) ncldtop) (- (* kfdia 4) (* kidia 4))) _for_it_56_1 (* (+ _for_it_55 1) (- kfdia kidia)) 1) kidia)) 1) (<= _for_it_56_0 (+ kfdia (- 1))) (<= (+ kidia (- 1)) _for_it_56_0) (= (select _if_cond_63_val (- (+ (* (- (+ _for_it_23 1) ncldtop) (- (* kfdia 4) (* kidia 4))) _for_it_56_0 (* _for_it_55 (- kfdia kidia)) 1) kidia)) 1) (= _for_it_56_0 _for_it_56_1))) (exists ((_for_it_56_0 Int)(_for_it_56_1 Int)) (and (= (select _if_cond_62_val (- (+ (* 4 _for_it_23) _for_it_55 5) (* ncldtop 4))) 1) (= (select _if_cond_62_val (- (+ (* 4 _for_it_23) _for_it_55 4) (* ncldtop 4))) 1) (<= _for_it_56_1 (+ kfdia (- 1))) (<= (+ kidia (- 1)) _for_it_56_1) (= (select _if_cond_63_val (- (+ (* (- (+ _for_it_23 1) ncldtop) (- (* kfdia 4) (* kidia 4))) _for_it_56_1 (* (+ _for_it_55 1) (- kfdia kidia)) 1) kidia)) 1) (<= _for_it_56_0 (+ kfdia (- 1))) (<= (+ kidia (- 1)) _for_it_56_0) (= (+ (select jn_val (- (+ (* 4 _for_it_23) _for_it_55 4) (* ncldtop 4))) (- 1)) (+ (select jn_val (- (+ (* 4 _for_it_23) _for_it_55 5) (* ncldtop 4))) (- 1))) (= (select _if_cond_63_val (- (+ (* (- (+ _for_it_23 1) ncldtop) (- (* kfdia 4) (* kidia 4))) _for_it_56_0 (* _for_it_55 (- kfdia kidia)) 1) kidia)) 1) (= _for_it_56_0 _for_it_56_1) (= _for_it_55 (+ _for_it_55 1)))) (= (- (+ (* 4 _for_it_23) _for_it_55 4) (* ncldtop 4)) (- (+ (* 4 _for_it_23) _for_it_55 5) (* ncldtop 4))) (and (= (select _if_cond_62_val (- (+ (* 4 _for_it_23) _for_it_55 4) (* ncldtop 4))) 1) (= (select _if_cond_62_val (- (+ (* 4 _for_it_23) _for_it_55 5) (* ncldtop 4))) 1) (= (- (+ (* 4 _for_it_23) _for_it_55 4) (* ncldtop 4)) (- (+ (* 4 _for_it_23) _for_it_55 5) (* ncldtop 4))))))
    )
    false
  )
))

(check-sat)